dates = {'2022-07-26','2022-07-27','2022-07-28','2022-07-29','2022-07-30','2022-07-31','2022-08-01','2022-08-02','2022-08-03','2022-08-04','2022-08-05','2022-08-06','2022-08-07','2022-08-08','2022-08-09','2022-08-10','2022-08-11','2022-08-12','2022-08-13','2022-08-14','2022-08-15'};

daysOfWeek = [Tuesday,Wednesday,Thursday,Friday,Saturday,Sunday,Monday,Tuesday,Wednesday,Thursday,Friday,Saturday,Sunday,Monday,Tuesday,Wednesday,Thursday,Friday,Saturday,Sunday,Monday];

% For this week, how many people will be here.
numPeople = [25,25,25,25,25,25,25,25,25,25,25,25,25,25,25,25,25,25,25,25,25];

% Physical workers need 50 to 100 % more nutrients per day.
numPhysicalWorkers = [13.0,13.0,13.0,13.0,13.0,13.0,13.0,13.0,13.0,13.0,13.0,13.0,13.0,13.0,13.0,13.0,13.0,13.0
,13.0,13.0,13.0];

% Males need +25% more nutrients per day.
numMen = [19,19,19,19,19,19,19,19,19,19,19,19,19,19,19,19,19,19,19,19,19];

% Num people who do not eat categories. contains = {none, meat, milk, gluten, egg, nut, seed, sugars}
numRefusals = [| 0,1,0,1,1,0,1,0 | 0,1,0,1,1,0,1,0 | 0,1,0,1,1,0,1,0 | 0,1,0,1,1,0,1,0 | 0,1,0,1,1,0,1,0 | 0,1,0,1,1,0,1,0 | 0,1,0,1,1,0,1,0 | 0,1,0,1,1,0,1,0 | 0,1,0,1,1,0,1,0 | 0,1,0,1,1,0,1,0 | 0,1,0,1,1,0,1,0 | 0,1,0,1,1,0,1,0 | 0,1,0,1,1,0,1,0 | 0,1,0,1,1,0,1,0 | 0,1,0,1,1,0,1,0 | 0,1,0,1,1,0,1,0 | 0,1,0,1,1,0,1,0 | 0,1,0,1,1,0,1,0 | 0,1,0,1,1,0,1,0 | 0,1,0,1,1,0,1,0 | 0,1,0,1,1,0,1,0 |];

